% demand
num_movements = 24;
loading_factor = [1900, 1100, 1100, 2000, 1150, 1100, 1350, 900, 1600, 1200, 1550, 1500, 1250, 1500, 1550, 1950, 1750, 1700, 850, 1650, 1300, 1650, 1600, 900];
pickup_time = [0, 0, 0, 1, 1, 1, 1, 2, 2, 3, 3, 3, 3, 3, 4, 6, 7, 7, 7, 8, 8, 8, 9, 9];
delivery_time = [1, 1, 3, 2, 3, 2, 2, 3, 3, 10, 4, 7, 6, 8, 6, 7, 8, 8, 8, 12, 9, 11, 12, 12];

% transporter definition
total_capacity = 7000;
num_decks = 3;
capacity = [3000, 1000, 3000];

% ways out of decks
num_ways_out = 1;
paths_out = array3d(decks, ways_out, decks, [
% ways out of deck d1
2, 3, 0, 

% ways out of deck d2
3, 0, 0, 

% ways out of deck d3
0, 0, 0,	

]);

